
Welcome to IBM(R) ILOG(R) CPLEX(R) Interactive Optimizer 22.1.1.0
  with Simplex, Mixed Integer & Barrier Optimizers
5725-A06 5725-A29 5724-Y48 5724-Y49 5724-Y54 5724-Y55 5655-Y21
Copyright IBM Corp. 1988, 2022.  All Rights Reserved.

Type 'help' for a list of available commands.
Type 'help' followed by a command name for more
information on commands.

CPLEX> Selected objective sense:  MINIMIZE
Selected objective  name:  00000000
Selected RHS        name:  RHS1
Selected bound      name:  BOUND
Problem 'ee.mps' read.
Read time = 0.03 sec. (3.14 ticks)
CPLEX> New value for time limit in seconds: 7200
CPLEX> New value for parallel optimization mode: -1
CPLEX> New value for default parallel thread count: 40
CPLEX> New value for mixed integer optimality gap tolerance: 1e-13
CPLEX> Version identifier: 22.1.1.0 | 2022-11-28 | 9160aff4d
CPXPARAM_Threads                                 40
CPXPARAM_Parallel                                -1
CPXPARAM_TimeLimit                               7200
CPXPARAM_MIP_Tolerances_MIPGap                   1e-13
Found incumbent of value 0.000000 after 0.00 sec. (0.31 ticks)
Tried aggregator 2 times.
MIP Presolve eliminated 180 rows and 2745 columns.
MIP Presolve modified 5862 coefficients.
Aggregator did 713 substitutions.
Reduced MIP has 3624 rows, 7739 columns, and 28645 nonzeros.
Reduced MIP has 7739 binaries, 0 generals, 0 SOSs, and 0 indicators.
Presolve time = 0.07 sec. (68.58 ticks)
Probing time = 0.03 sec. (5.91 ticks)
Tried aggregator 1 time.
Detecting symmetries...
Reduced MIP has 3624 rows, 7739 columns, and 28645 nonzeros.
Reduced MIP has 7739 binaries, 0 generals, 0 SOSs, and 0 indicators.
Presolve time = 0.02 sec. (21.84 ticks)
Probing time = 0.02 sec. (5.71 ticks)
Clique table members: 18552.
MIP emphasis: balance optimality and feasibility.
MIP search method: dynamic search.
Parallel mode: opportunistic, using up to 40 threads.
Root relaxation solution time = 0.07 sec. (64.25 ticks)

        Nodes                                         Cuts/
   Node  Left     Objective  IInf  Best Integer    Best Bound    ItCnt     Gap

*     0+    0                            0.0000  -1.31000e+13              --- 
*     0+    0                      -4.40000e+12  -1.31000e+13           197.73%
*     0+    0                      -5.50000e+12  -1.31000e+13           138.18%
      0     0  -1.30900e+13    64  -5.50000e+12  -1.30900e+13     1328  138.00%
*     0+    0                      -1.30900e+13  -1.30900e+13             0.00%
*     0+    0                      -1.30900e+13  -1.30900e+13             0.00%
      0     0  -1.30900e+13   134  -1.30900e+13      Cuts: 64     1864    0.00%
*     0+    0                      -1.30900e+13  -1.30900e+13             0.00%
      0     0  -1.30900e+13   166  -1.30900e+13      Cuts: 45     2240    0.00%
*     0+    0                      -1.30900e+13  -1.30900e+13             0.00%

Repeating presolve.
Tried aggregator 2 times.
MIP Presolve eliminated 1111 rows and 3140 columns.
MIP Presolve added 8 rows and 0 columns.
MIP Presolve modified 72 coefficients.
Aggregator did 294 substitutions.
Reduced MIP has 2227 rows, 4284 columns, and 15696 nonzeros.
Reduced MIP has 4284 binaries, 0 generals, 0 SOSs, and 0 indicators.
Presolve time = 0.05 sec. (49.09 ticks)
Probing fixed 56 vars, tightened 0 bounds.
Probing time = 0.04 sec. (19.21 ticks)
Tried aggregator 2 times.
MIP Presolve eliminated 25 rows and 74 columns.
Aggregator did 17 substitutions.
Reduced MIP has 2185 rows, 4186 columns, and 15358 nonzeros.
Reduced MIP has 4186 binaries, 0 generals, 0 SOSs, and 0 indicators.
Presolve time = 0.02 sec. (24.80 ticks)
Probing time = 0.02 sec. (9.82 ticks)
Tried aggregator 1 time.
Detecting symmetries...
MIP Presolve eliminated 5 rows and 4 columns.
Reduced MIP has 2180 rows, 4181 columns, and 15333 nonzeros.
Reduced MIP has 4181 binaries, 0 generals, 0 SOSs, and 0 indicators.
Presolve time = 0.02 sec. (19.80 ticks)
Represolve time = 0.19 sec. (143.54 ticks)
Probing time = 0.02 sec. (3.74 ticks)
Clique table members: 9990.
MIP emphasis: balance optimality and feasibility.
MIP search method: dynamic search.
Parallel mode: opportunistic, using up to 40 threads.
Root relaxation solution time = 0.05 sec. (35.60 ticks)

        Nodes                                         Cuts/
   Node  Left     Objective  IInf  Best Integer    Best Bound    ItCnt     Gap

*     0+    0                      -1.30900e+13  -1.30900e+13             0.00%
      0     0  -1.30900e+13   115  -1.30900e+13  -1.30900e+13     3442    0.00%
      0     0  -1.30900e+13   129  -1.30900e+13      Cuts: 88     3833    0.00%
      0     0  -1.30900e+13   172  -1.30900e+13      Cuts: 85     4108    0.00%
      0     2  -1.30900e+13   157  -1.30900e+13  -1.30900e+13     4108    0.00%
Elapsed time = 2.07 sec. (1489.91 ticks, tree = 0.02 MB, solutions = 8)
    893    56  -1.30900e+13   165  -1.30900e+13  -1.30900e+13    50764    0.00%
   2247    27  -1.30900e+13   108  -1.30900e+13  -1.30900e+13   107690    0.00%

GUB cover cuts applied:  2
Clique cuts applied:  17
Cover cuts applied:  426
Flow cuts applied:  1
Mixed integer rounding cuts applied:  8
Zero-half cuts applied:  16
Lift and project cuts applied:  18
Gomory fractional cuts applied:  12

Root node processing (before b&c):
  Real time             =    1.66 sec. (1489.20 ticks)
Parallel b&c, 40 threads:
  Real time             =    2.19 sec. (658.74 ticks)
  Sync time (average)   =    1.25 sec.
  Wait time (average)   =    0.00 sec.
                          ------------
Total (root+branch&cut) =    3.85 sec. (2147.94 ticks)

Solution pool: 10 solutions saved.

MIP - Integer optimal solution:  Objective = -1.3089999790e+13
Solution time =    3.92 sec.  Iterations = 130659  Nodes = 2453
Deterministic time = 2147.97 ticks  (547.97 ticks/sec)

CPLEX> Solution 'p11' written to file 'ee.sol'.
CPLEX> 